! r2SCAN def2-QZVP TightSCF
! DEFGRID3
! RIJK def2/JK
! D4

%method 
ScalHFX 0.25
ScalDFX 0.75
D3S8 0.8992
D3A1 0.4778
D3A2 5.8779
end

* xyzfile CHRG MULT struc.xyz



